solution status: optimal solution found
objective value:                                    0
$_2_y                                             -14 	(obj:0)
$_2_z                                              -7 	(obj:0)
$_8_y                                              -9 	(obj:0)
$_8_z                                              -8 	(obj:0)
$_13_y                                             -9 	(obj:0)
$_13_z                                            -11 	(obj:0)
$_11_y                                            -10 	(obj:0)
$_11_z                                             -7 	(obj:0)
$_10_y                                            -14 	(obj:0)
$_10_z                                             -6 	(obj:0)
$_5_y                                              -8 	(obj:0)
$_5_z                                             -12 	(obj:0)
$_6_y                                             -14 	(obj:0)
$_6_z                                              -8 	(obj:0)
$_12_y                                             -9 	(obj:0)
$_12_z                                             -9 	(obj:0)
$_3_y                                             -10 	(obj:0)
$_3_z                                              -6 	(obj:0)
$_4_y                                              -8 	(obj:0)
$_4_z                                              -8 	(obj:0)
$_7_y                                             -11 	(obj:0)
$_7_z                                              -7 	(obj:0)
$_9_y                                              -9 	(obj:0)
$_9_z                                             -12 	(obj:0)
